c colouring generated by benchmark framework
p edge 309 492
v 1 1
v 2 1
v 3 0
v 4 2
v 5 0
v 6 0
v 7 1
v 8 2
v 9 2
v 10 0
v 11 1
v 12 2
v 13 2
v 14 0
v 15 2
v 16 0
v 17 0
v 18 0
v 19 0
v 20 2
v 21 1
v 22 2
v 23 0
v 24 2
v 25 0
v 26 0
v 27 1
v 28 1
v 29 1
v 30 1
v 31 2
v 32 1
v 33 1
v 34 2
v 35 0
v 36 0
v 37 1
v 38 2
v 39 0
v 40 1
v 41 1
v 42 1
v 43 1
v 44 1
v 45 2
v 46 1
v 47 1
v 48 2
v 49 0
v 50 1
v 51 2
v 52 2
v 53 0
v 54 1
v 55 2
v 56 0
v 57 1
v 58 0
v 59 1
v 60 2
v 61 1
v 62 0
v 63 0
v 64 0
v 65 1
v 66 2
v 67 3
v 68 0
v 69 0
v 70 0
v 71 1
v 72 0
v 73 0
v 74 2
v 75 0
v 76 2
v 77 0
v 78 1
v 79 2
v 80 0
v 81 2
v 82 0
v 83 2
v 84 2
v 85 1
v 86 0
v 87 2
v 88 1
v 89 2
v 90 0
v 91 1
v 92 0
v 93 0
v 94 1
v 95 0
v 96 3
v 97 1
v 98 2
v 99 1
v 100 0
v 101 0
v 102 0
v 103 2
v 104 0
v 105 0
v 106 0
v 107 1
v 108 1
v 109 2
v 110 0
v 111 2
v 112 1
v 113 3
v 114 2
v 115 2
v 116 1
v 117 1
v 118 2
v 119 2
v 120 0
v 121 0
v 122 0
v 123 0
v 124 1
v 125 0
v 126 0
v 127 0
v 128 1
v 129 2
v 130 2
v 131 1
v 132 2
v 133 1
v 134 2
v 135 0
v 136 1
v 137 0
v 138 2
v 139 1
v 140 2
v 141 0
v 142 1
v 143 1
v 144 1
v 145 0
v 146 0
v 147 0
v 148 2
v 149 1
v 150 0
v 151 2
v 152 1
v 153 1
v 154 1
v 155 1
v 156 2
v 157 0
v 158 1
v 159 1
v 160 1
v 161 2
v 162 2
v 163 1
v 164 2
v 165 0
v 166 1
v 167 0
v 168 2
v 169 1
v 170 1
v 171 1
v 172 1
v 173 0
v 174 1
v 175 2
v 176 1
v 177 2
v 178 0
v 179 0
v 180 1
v 181 1
v 182 0
v 183 0
v 184 1
v 185 0
v 186 1
v 187 1
v 188 2
v 189 1
v 190 2
v 191 2
v 192 1
v 193 0
v 194 3
v 195 0
v 196 1
v 197 1
v 198 2
v 199 0
v 200 1
v 201 1
v 202 1
v 203 2
v 204 0
v 205 0
v 206 0
v 207 1
v 208 1
v 209 1
v 210 1
v 211 2
v 212 1
v 213 1
v 214 1
v 215 3
v 216 2
v 217 0
v 218 1
v 219 1
v 220 1
v 221 2
v 222 0
v 223 2
v 224 2
v 225 2
v 226 0
v 227 0
v 228 0
v 229 1
v 230 0
v 231 1
v 232 0
v 233 0
v 234 1
v 235 2
v 236 2
v 237 0
v 238 0
v 239 2
v 240 2
v 241 2
v 242 0
v 243 1
v 244 0
v 245 1
v 246 3
v 247 1
v 248 1
v 249 0
v 250 1
v 251 2
v 252 2
v 253 2
v 254 1
v 255 0
v 256 0
v 257 1
v 258 1
v 259 1
v 260 1
v 261 0
v 262 1
v 263 0
v 264 2
v 265 2
v 266 0
v 267 0
v 268 0
v 269 0
v 270 0
v 271 1
v 272 0
v 273 1
v 274 2
v 275 0
v 276 0
v 277 2
v 278 0
v 279 2
v 280 0
v 281 0
v 282 0
v 283 1
v 284 1
v 285 2
v 286 2
v 287 0
v 288 1
v 289 1
v 290 0
v 291 1
v 292 0
v 293 0
v 294 1
v 295 1
v 296 1
v 297 0
v 298 1
v 299 0
v 300 0
v 301 1
v 302 1
v 303 2
v 304 2
v 305 2
v 306 1
v 307 3
v 308 1
v 309 1
